

******************************************************************************
This program contains Ipopt, a library for large-scale nonlinear optimization.
 Ipopt is released as open source code under the Eclipse Public License (EPL).
         For more information visit https://github.com/coin-or/Ipopt
******************************************************************************

This is Ipopt version 3.14.11, running with linear solver MUMPS 5.5.1.

Number of nonzeros in equality constraint Jacobian...:        6
Number of nonzeros in inequality constraint Jacobian.:        0
Number of nonzeros in Lagrangian Hessian.............:        6

Total number of variables............................:        5
                     variables with only lower bounds:        0
                variables with lower and upper bounds:        0
                     variables with only upper bounds:        0
Total number of equality constraints.................:        2
Total number of inequality constraints...............:        0
        inequality constraints with only lower bounds:        0
   inequality constraints with lower and upper bounds:        0
        inequality constraints with only upper bounds:        0

iter    objective    inf_pr   inf_du lg(mu)  ||d||  lg(rg) alpha_du alpha_pr  ls
   0  2.6600006e+02 0.00e+00 2.34e+01  -1.0 0.00e+00    -  0.00e+00 0.00e+00   0
   1  5.0567902e+01 8.88e-16 2.96e+01  -1.0 3.67e+00    -  1.00e+00 1.00e+00f  1
   2  9.9887212e+00 1.78e-15 8.78e+00  -1.0 1.78e+00    -  1.00e+00 1.00e+00f  1
   3  1.9730807e+00 0.00e+00 2.60e+00  -1.0 1.19e+00    -  1.00e+00 1.00e+00f  1
   4  3.8974434e-01 0.00e+00 7.71e-01  -1.0 7.90e-01    -  1.00e+00 1.00e+00f  1
   5  7.6986537e-02 8.88e-16 2.28e-01  -1.7 5.27e-01    -  1.00e+00 1.00e+00f  1
   6  1.5207217e-02 0.00e+00 6.77e-02  -1.7 3.51e-01    -  1.00e+00 1.00e+00f  1
   7  3.0038947e-03 0.00e+00 2.00e-02  -2.5 2.34e-01    -  1.00e+00 1.00e+00f  1
   8  5.9336193e-04 0.00e+00 5.94e-03  -3.8 1.56e-01    -  1.00e+00 1.00e+00f  1
   9  1.1720729e-04 0.00e+00 1.76e-03  -3.8 1.04e-01    -  1.00e+00 1.00e+00f  1
iter    objective    inf_pr   inf_du lg(mu)  ||d||  lg(rg) alpha_du alpha_pr  ls
  10  2.3152058e-05 0.00e+00 5.22e-04  -3.8 6.94e-02    -  1.00e+00 1.00e+00f  1
  11  4.5732460e-06 0.00e+00 1.55e-04  -5.7 4.62e-02    -  1.00e+00 1.00e+00f  1
  12  9.0335724e-07 0.00e+00 4.58e-05  -5.7 3.08e-02    -  1.00e+00 1.00e+00f  1
  13  1.7844094e-07 0.00e+00 1.36e-05  -5.7 2.06e-02    -  1.00e+00 1.00e+00f  1
  14  3.5247592e-08 0.00e+00 4.02e-06  -8.6 1.37e-02    -  1.00e+00 1.00e+00f  1
  15  6.9624874e-09 0.00e+00 1.19e-06  -8.6 9.13e-03    -  1.00e+00 1.00e+00f  1
  16  1.3753062e-09 0.00e+00 3.53e-07  -8.6 6.09e-03    -  1.00e+00 1.00e+00f  1
  17  2.7166541e-10 0.00e+00 1.05e-07  -8.6 4.06e-03    -  1.00e+00 1.00e+00f  1
  18  5.3662304e-11 0.00e+00 3.10e-08  -8.6 2.71e-03    -  1.00e+00 1.00e+00f  1
  19  1.0599961e-11 0.00e+00 9.18e-09  -8.6 1.80e-03    -  1.00e+00 1.00e+00f  1

Number of Iterations....: 19

                                   (scaled)                 (unscaled)
Objective...............:   4.1406098580506536e-12    1.0599961236609674e-11
Dual infeasibility......:   9.1790605314111565e-09    2.3498394960412562e-08
Constraint violation....:   0.0000000000000000e+00    0.0000000000000000e+00
Variable bound violation:   0.0000000000000000e+00    0.0000000000000000e+00
Complementarity.........:   0.0000000000000000e+00    0.0000000000000000e+00
Overall NLP error.......:   9.1790605314111565e-09    2.3498394960412562e-08


Number of objective function evaluations             = 20
Number of objective gradient evaluations             = 20
Number of equality constraint evaluations            = 20
Number of inequality constraint evaluations          = 0
Number of equality constraint Jacobian evaluations   = 20
Number of inequality constraint Jacobian evaluations = 0
Number of Lagrangian Hessian evaluations             = 19
Total seconds in IPOPT                               = 0.011

EXIT: Optimal Solution Found.
 
Ipopt 3.14.11: Optimal Solution Found
